title "B4_a"

charge -1

basis
* library 6-311+g*
end

driver
maxiter 5000
trust 0.3
end

dft
 xc pbe0
iterations 5000
end

task dft optimize
